K-points for SC bandstructure [banduppy-1.0.0-dev]
65
reciprocal
  0.00000000   0.00000000   0.00000000   1.00000000
  0.00000000   0.05000000   0.00000000   1.00000000
  0.00000000   0.10000000   0.00000000   1.00000000
  0.00000000   0.15000000   0.00000000   1.00000000
  0.00000000   0.20000000   0.00000000   1.00000000
  0.00000000   0.25000000   0.00000000   1.00000000
  0.00000000   0.30000000   0.00000000   1.00000000
  0.00000000   0.35000000   0.00000000   1.00000000
  0.00000000   0.40000000   0.00000000   1.00000000
  0.00000000   0.45000000   0.00000000   1.00000000
  0.00000000   0.50000000   0.00000000   1.00000000
  0.00000000   0.55000000   0.00000000   1.00000000
  0.00000000   0.60000000   0.00000000   1.00000000
  0.00000000   0.65000000   0.00000000   1.00000000
  0.00000000   0.70000000   0.00000000   1.00000000
  0.00000000   0.75000000   0.00000000   1.00000000
  0.00000000   0.80000000   0.00000000   1.00000000
  0.00000000   0.85000000   0.00000000   1.00000000
  0.00000000   0.90000000   0.00000000   1.00000000
  0.00000000   0.95000000   0.00000000   1.00000000
  0.02500000   0.02500000   0.02500000   1.00000000
  0.03750000   0.03750000   0.00000000   1.00000000
  0.05000000   0.00000000   0.05000000   1.00000000
  0.05000000   0.05000000   0.05000000   1.00000000
  0.07500000   0.07500000   0.00000000   1.00000000
  0.07500000   0.07500000   0.07500000   1.00000000
  0.10000000   0.00000000   0.10000000   1.00000000
  0.10000000   0.10000000   0.10000000   1.00000000
  0.11250000   0.11250000   0.00000000   1.00000000
  0.12500000   0.12500000   0.12500000   1.00000000
  0.15000000   0.15000000   0.00000000   1.00000000
  0.15000000   0.15000000   0.15000000   1.00000000
  0.15000000   1.00000000   0.15000000   1.00000000
  0.17500000   0.17500000   0.17500000   1.00000000
  0.18750000   0.18750000   0.00000000   1.00000000
  0.20000000   0.00000000   0.20000000   1.00000000
  0.20000000   0.20000000   0.20000000   1.00000000
  0.22500000   0.22500000   0.00000000   1.00000000
  0.22500000   0.22500000   0.22500000   1.00000000
  0.25000000   0.00000000   0.25000000   1.00000000
  0.25000000   0.25000000   0.25000000   1.00000000
  0.26250000   0.26250000   0.00000000   1.00000000
  0.27500000   0.27500000   0.27500000   1.00000000
  0.30000000   0.30000000   0.00000000   1.00000000
  0.30000000   0.30000000   0.30000000   1.00000000
  0.32500000   0.32500000   0.32500000   1.00000000
  0.33750000   0.33750000   0.00000000   1.00000000
  0.35000000   0.35000000   0.35000000   1.00000000
  0.37500000   0.37500000   0.00000000   1.00000000
  0.37500000   0.37500000   0.37500000   1.00000000
  0.40000000   0.40000000   0.40000000   1.00000000
  0.41250000   0.41250000   0.00000000   1.00000000
  0.42500000   0.42500000   0.42500000   1.00000000
  0.45000000   0.45000000   0.00000000   1.00000000
  0.45000000   0.45000000   0.45000000   1.00000000
  0.47500000   0.47500000   0.47500000   1.00000000
  0.48750000   0.48750000   0.00000000   1.00000000
  0.50000000   0.50000000   0.50000000   1.00000000
  0.52500000   0.52500000   0.00000000   1.00000000
  0.56250000   0.56250000   0.00000000   1.00000000
  0.60000000   0.60000000   0.00000000   1.00000000
  0.63750000   0.63750000   0.00000000   1.00000000
  0.67500000   0.67500000   0.00000000   1.00000000
  0.71250000   0.71250000   0.00000000   1.00000000
  0.75000000   0.75000000   0.00000000   1.00000000


# Above SC Kpoints (and/or some other SCKPTS related to them by symm. ops. of the SCBZ)
# unfold onto user specified PC kpoints or kpath.
# k-points for PC bandstructure L-G-X-U,K-G
# 21 21 6 21
# Reciprocal
#   0.50000000   0.50000000   0.50000000   L
#   0.00000000   0.00000000   0.00000000   G
#   0.50000000   0.00000000   0.50000000   X
#   0.62500000   0.25000000   0.62500000   U
#  
#   0.37500000   0.37500000   0.75000000   K
#   0.00000000   0.00000000   0.00000000   G
